HUN,8,6,283
1,22,3,30,2,29,5,24,4,30,0,25
3,21,0,29,1,28,2,25,4,24,5,25
3,27,1,26,4,23,5,28,2,30,0,21
3,22,2,28,4,25,0,29,5,30,1,25
0,26,4,29,5,23,1,26,3,22,2,25
4,29,5,25,1,23,2,29,3,22,0,26
3,21,1,26,5,26,4,24,0,26,2,21
5,29,1,23,4,23,3,27,2,23,0,30
